p cnf 44 132
a 10 19 0
e 1 2 3 4 5 6 7 8 9 11 12 13 14 15 16 17 18 20 21 22 23 24 25 26 27 28 29 30 31 32 33 34 35 36 37 38 39 40 41 42 43 44 0
3 -1 0
3 2 0
1 -2 -3 0
-5 -3 0
-5 4 0
3 -4 5 0
4 6 0
-4 6 0
7 -6 0
7 -4 0
6 4 -7 0
-9 2 0
-9 8 0
-2 -8 9 0
9 -4 -10 0
-9 4 -10 0
9 4 10 0
-9 -4 10 0
11 -10 0
11 8 0
10 -8 -11 0
-7 11 -12 0
7 -11 -12 0
-7 -11 12 0
7 11 12 0
-13 5 0
-13 -12 0
-5 12 13 0
15 -14 0
15 10 0
14 -10 -15 0
6 -8 -16 0
-6 8 -16 0
6 8 16 0
-6 -8 16 0
-2 -16 -17 0
2 16 -17 0
-2 16 17 0
2 -16 17 0
15 17 -18 0
-15 -17 -18 0
15 -17 18 0
-15 17 18 0
19 -2 0
19 -15 0
2 15 -19 0
-18 -19 -20 0
18 19 -20 0
-18 19 20 0
18 -19 20 0
-14 -21 0
14 -21 0
-22 10 0
-22 -21 0
-10 21 22 0
20 -22 -23 0
-20 22 -23 0
20 22 23 0
-20 -22 23 0
-24 7 0
-24 7 0
-7 24 0
-24 1 -25 0
24 -1 -25 0
-24 -1 25 0
24 1 25 0
-26 -23 0
-26 -25 0
23 25 26 0
-13 -26 -27 0
13 26 -27 0
-13 26 27 0
13 -26 27 0
29 28 0
29 2 0
-28 -2 -29 0
-30 16 0
-30 1 0
-16 -1 30 0
31 -29 0
31 -30 0
29 30 -31 0
-27 -31 -32 0
27 31 -32 0
-27 31 32 0
27 -31 32 0
33 7 0
33 -10 0
-7 10 -33 0
-34 32 0
-34 -33 0
-32 33 34 0
-36 -2 0
-36 -35 0
2 35 36 0
6 -10 -37 0
-6 10 -37 0
6 10 37 0
-6 -10 37 0
39 37 0
39 38 0
-37 -38 -39 0
36 -39 -40 0
-36 39 -40 0
36 39 40 0
-36 -39 40 0
-28 11 -41 0
28 -11 -41 0
-28 -11 41 0
28 11 41 0
-42 -17 0
-42 41 0
17 -41 42 0
-43 40 0
-43 42 0
-40 -42 43 0
44 34 0
44 43 0
-34 -43 -44 0
28 25 42 -19 27 0
-18 -2 -38 -27 30 -29 0
-27 23 -22 0
-14 35 -10 31 -5 -16 0
-10 42 -14 37 0
-29 -8 -35 -15 12 0
-43 9 32 -25 -6 19 0
-8 30 -3 -39 7 26 0
41 30 33 42 36 5 -14 0
4 41 30 22 29 7 -35 0
17 -36 -43 -10 0
-43 41 -12 32 14 -37 0
44 0
